StudentsNr = 10;
InstructorsNr = 82;
DaysNr = 2;
SlotsPerDay = 10;
AvailabilitySlotsLenght = 10;
RoomNr = 1;
ProgrammNr = 2;
DegreeNr = 3;
RolesNr = 2;
CoursesNr = 2;
InstructorsProgramm = [{2}, {1, 2}, {1}, {1}, {1}, {2}, {2}, {2}, {1}, {1}, {1, 2}, {2}, {1, 2}, {2}, {2}, {2}, {1}, {1, 2}, {2}, {1, 2}, {1, 2}, {2}, {2}, {1}, {2}, {1, 2}, {2}, {2}, {1, 2}, {1}, {1, 2}, {2}, {2}, {1, 2}, {1}, {1, 2}, {2}, {1}, {1}, {2}, {1}, {2}, {1}, {2}, {1, 2}, {2}, {1}, {2}, {2}, {2}, {1, 2}, {1}, {2}, {1}, {1, 2}, {1}, {1, 2}, {2}, {2}, {2}, {2}, {1}, {2}, {2}, {2}, {2}, {2}, {2}, {1}, {1, 2}, {2}, {1, 2}, {1, 2}, {2}, {2}, {1}, {2}, {2}, {2}, {2}, {1, 2}, {1}];
InstructorRolesPerProgramm = [|{3, 4, 5, 13, 17, 18, 20, 21, 26, 30, 31, 34, 35, 38, 39, 47, 54, 62, 69, 70, 73, 76}, {10, 17, 20, 21, 29, 30, 31, 36, 38, 41, 47, 52, 56, 57, 70, 72, 82}|{1, 6, 13, 16, 18, 20, 21, 25, 26, 28, 31, 32, 33, 34, 42, 49, 50, 59, 63, 67, 68, 70, 71, 73, 75, 79, 80}, {6, 7, 8, 16, 20, 21, 22, 28, 29, 31, 32, 33, 36, 37, 46, 48, 50, 57, 63, 65, 66, 67, 68, 70, 72, 74, 77}|];
InstructorsAvailability = [|1, 1, |0, 1, |1, 1, |1, 1, |1, 1, |1, 1, |0, 1, |1, 1, |0, 0, |1, 1, |0, 1, |1, 1, |0, 0, |1, 1, |0, 1, |1, 1, |0, 1, |1, 1, |1, 1, |1, 1, |1, 1, |1, 1, |0, 1, |1, 1, |1, 1, |1, 1, |0, 0, |1, 1, |0, 0, |0, 0, |0, 0, |1, 1, |0, 1, |1, 1, |1, 1, |1, 1, |1, 1, |0, 0, |1, 1, |1, 1, |1, 1, |1, 1, |0, 0, |1, 1, |1, 0, |0, 1, |0, 1, |1, 1, |1, 0, |1, 1, |0, 1, |0, 1, |1, 1, |0, 0, |1, 0, |0, 0, |0, 1, |1, 0, |1, 1, |1, 1, |1, 1, |1, 1, |1, 1, |1, 1, |1, 1, |0, 1, |0, 0, |0, 1, |0, 1, |0, 0, |1, 1, |0, 1, |1, 1, |0, 1, |0, 1, |1, 1, |0, 1, |0, 1, |0, 0, |0, 1, |1, 1, |1, 1|];
StudentsProgramm = [2, 2, 2, 2, 2, 2, 1, 1, 2, 1];
StudentsDegree = [1, 3, 3, 1, 2, 2, 2, 2, 2, 3];
StudentsSupervisorId = [44, 20, 32, 77, 42, 70, 47, 51, 27, 18];
StudentsCourseIds = [{1, 2}, {2}, {2}, {1, 2}, {1, 2}, {1, 2}, {1, 2}, {1, 2}, {1, 2}, {1}];
StudentsAvailability = [|1, 1, |0, 0, |0, 0, |0, 1, |1, 1, |0, 1, |0, 0, |0, 1, |0, 0, |0, 1|];
TheoryticalMinCard = [0, 0, 0, 0, 0, 0, 0, 0, 0, 0];
CoursesInstructorIds = [{1, 4, 5, 7, 8, 9, 12, 13, 14, 16, 19, 22, 23, 24, 27, 28, 29, 31, 32, 33, 39, 41, 42, 43, 44, 45, 46, 49, 52, 54, 55, 57, 59, 62, 64, 67, 68, 69, 70, 71, 72, 73, 74, 75, 77, 80, 82}, {2, 3, 7, 9, 10, 11, 15, 16, 17, 21, 22, 24, 26, 28, 30, 31, 32, 33, 34, 35, 38, 40, 41, 45, 46, 48, 51, 52, 57, 58, 60, 67, 68, 71, 72, 74, 77, 82}];
RolesDemands = [5, 1];
RolesContinuity = [1];
ExamLen = [2, 1, 1, 2, 1, 1, 1, 1, 1, 1];
LunchTsMinLen = 0;
LunchStarts = [5..6, 12..17];
SupervisorAvailable = 0;
OptimalLunchLenght = [0, 1];
OptimalStartTs = [2, 0];
OptimalFinishTs = [0, 10];
MinimizeRooms = 200;
RolesSoftContinuity = [|1, 2|4, 4|];
SameDegreeInRoom = 10;
Mergeability = 0;
